Instance name : bar-n100-1
Authors       : Pix
Date          : 2025
Reference     : Simplified Hybrid ACO + Pure Greedy
Solution
Route 1 : 31 14 64 49 30 33 80 7 57 99 81 10 25 83 60 6 56 75 23 73 1 51
Route 2 : 47 27 26 76 39 2 21 52 71 77 97 89 9 59 37 36 87 86
Route 3 : 32 82 13 63 24 35 38 88 85 43 74 12 18 62 68 93
Route 4 : 15 19 44 69 94 65 3 22 72 48 98 28 78 53
Route 5 : 40 17 67 16 41 66 5 55 90 34 84 91 46 50 96 100
Route 6 : 42 20 92 45 70 4 54 95 8 58
Route 7 : 29 79 11 61
